     Program PWSCF v.7.0 starts on 23Sep2022 at 13: 7:57

     K-points division:     npool     =       4
     R & G space division:  proc/nbgrp/npool/nimage =       3

     Reading input from CeO2.in

     Current dimensions of program PWSCF are:
     Max number of different atomic species (ntypx) = 10
     Max number of k-points (npk) =  40000
     Max angular momentum in pseudopotentials (lmaxx) =  4
     file O.pbe-n-kjpaw_psl.0.1.UPF: wavefunction(s)  2P renormalized
     Found identity + (  0.0000  0.0000 -0.5000) symmetry
     This is a supercell, fractional translations are disabled
     Message from routine setup:
     using ibrav=0 with symmetry is DISCOURAGED, use correct ibrav instead

     Subspace diagonalization in iterative solution of the eigenvalue problem:
     a serial algorithm will be used

     Using Slab Decomposition

     bravais-lattice index     =            0
     lattice parameter (alat)  =      14.6116  a.u.
     unit-cell volume          =    2205.8760 (a.u.)^3
     number of atoms/cell      =           24
     number of atomic types    =            2
     number of electrons       =       192.00
     number of Kohn-Sham states=          115
     kinetic-energy cutoff     =      50.0000  Ry
     charge density cutoff     =     400.0000  Ry
     scf convergence threshold =      1.0E-04
     mixing beta               =       0.4000
     number of iterations used =            8  plain     mixing
     Exchange-correlation= SLA  PW   PBX  PBC
                           (   1   4   3   4   0   0   0)

     celldm(1)=  14.611631  celldm(2)=   0.000000  celldm(3)=   0.000000
     celldm(4)=   0.000000  celldm(5)=   0.000000  celldm(6)=   0.000000

     crystal axes: (cart. coord. in units of alat)
               a(1) = (   1.000000   0.000000   0.000000 )
               a(2) = (   0.500000   0.866025   0.000000 )
               a(3) = (   0.500000   0.288675   0.816497 )

     reciprocal axes: (cart. coord. in units 2 pi/alat)
               b(1) = (  1.000000 -0.577350 -0.408248 )
               b(2) = (  0.000000  1.154700 -0.408248 )
               b(3) = (  0.000000  0.000000  1.224745 )

     PseudoPot. # 1 for Ce read from file:
     ./pseudo/Ce.GGA-PBE-paw-v1.0.UPF
     MD5 check sum: f2b950f613061344c13339c8d844425d
     Pseudo is Projector augmented-wave + core cor, Zval = 12.0
     Generated using ATOMPAW code
     Shape of augmentation charge: BESSEL
     Using radial grid of 1102 points,  8 beta functions with:
                l(1) =   0
                l(2) =   0
                l(3) =   1
                l(4) =   1
                l(5) =   2
                l(6) =   2
                l(7) =   3
                l(8) =   3
     Q(r) pseudized with 0 coefficients

     PseudoPot. # 2 for O  read from file:
     ./pseudo/O.pbe-n-kjpaw_psl.0.1.UPF
     MD5 check sum: 0234752ac141de4415c5fc33072bef88
     Pseudo is Projector augmented-wave + core cor, Zval =  6.0
     Generated using "atomic" code by A. Dal Corso  v.5.0.99 svn rev. 10869
     Shape of augmentation charge: BESSEL
     Using radial grid of 1095 points,  4 beta functions with:
                l(1) =   0
                l(2) =   0
                l(3) =   1
                l(4) =   1
     Q(r) pseudized with 0 coefficients

     atomic species   valence    mass     pseudopotential
        Ce            12.00   140.11600     Ce( 1.00)
        O              6.00    15.99940     O ( 1.00)

     12 Sym. Ops., with inversion, found

   Cartesian axes

     site n.     atom                  positions (alat units)
         1           Ce  tau(   1) = (   0.0000000   0.0000000   0.0000000  )
         2           Ce  tau(   2) = (   0.2500000   0.1443376   0.4082483  )
         3           Ce  tau(   3) = (   0.2500000   0.4330127   0.0000000  )
         4           Ce  tau(   4) = (   0.4999999   0.5773503   0.4082483  )
         5           Ce  tau(   5) = (   0.5000000   0.0000000   0.0000000  )
         6           Ce  tau(   6) = (   0.7500000   0.1443376   0.4082483  )
         7           Ce  tau(   7) = (   0.7500000   0.4330127   0.0000000  )
         8           Ce  tau(   8) = (   0.9999999   0.5773503   0.4082483  )
         9           O   tau(   9) = (   0.7500000   0.4330127   0.3061862  )
        10           O   tau(  10) = (   0.9999999   0.5773503   0.7144345  )
        11           O   tau(  11) = (   0.9999999   0.8660254   0.3061862  )
        12           O   tau(  12) = (   1.2499999   1.0103630   0.7144345  )
        13           O   tau(  13) = (   1.2500000   0.4330127   0.3061862  )
        14           O   tau(  14) = (   1.4999999   0.5773503   0.7144345  )
        15           O   tau(  15) = (   1.4999999   0.8660254   0.3061862  )
        16           O   tau(  16) = (   1.7499999   1.0103630   0.7144345  )
        17           O   tau(  17) = (   0.2500000   0.1443376   0.1020621  )
        18           O   tau(  18) = (   0.5000000   0.2886751   0.5103104  )
        19           O   tau(  19) = (   0.5000000   0.5773503   0.1020621  )
        20           O   tau(  20) = (   0.7499999   0.7216879   0.5103104  )
        21           O   tau(  21) = (   0.7500000   0.1443376   0.1020621  )
        22           O   tau(  22) = (   1.0000000   0.2886751   0.5103104  )
        23           O   tau(  23) = (   1.0000000   0.5773503   0.1020621  )
        24           O   tau(  24) = (   1.2499999   0.7216879   0.5103104  )

     number of k points=    20  Methfessel-Paxton smearing, width (Ry)=  0.0100
                       cart. coord. in units 2pi/alat
        k(    1) = (   0.1250000  -0.0721688  -0.0510310), wk =   0.0625000
        k(    2) = (   0.1250000  -0.0721688   0.2551552), wk =   0.0625000
        k(    3) = (   0.1250000  -0.0721688  -0.6634034), wk =   0.0625000
        k(    4) = (   0.1250000  -0.0721688  -0.3572172), wk =   0.0625000
        k(    5) = (   0.1250000   0.2165064  -0.1530931), wk =   0.1250000
        k(    6) = (   0.1250000   0.2165064  -0.7654655), wk =   0.1250000
        k(    7) = (   0.1250000  -0.6495190   0.1530931), wk =   0.1250000
        k(    8) = (   0.1250000  -0.6495190   0.4592793), wk =   0.1250000
        k(    9) = (   0.1250000  -0.6495190  -0.4592793), wk =   0.1250000
        k(   10) = (   0.1250000  -0.6495190  -0.1530931), wk =   0.1250000
        k(   11) = (   0.1250000  -0.3608439   0.0510310), wk =   0.1250000
        k(   12) = (   0.1250000  -0.3608439   0.3572172), wk =   0.1250000
        k(   13) = (   0.1250000  -0.3608439  -0.5613414), wk =   0.1250000
        k(   14) = (   0.1250000  -0.3608439  -0.2551552), wk =   0.1250000
        k(   15) = (   0.3750000  -0.2165063  -0.1530931), wk =   0.0625000
        k(   16) = (   0.3750000  -0.2165063   0.1530931), wk =   0.0625000
        k(   17) = (   0.3750000  -0.2165063  -0.7654655), wk =   0.0625000
        k(   18) = (   0.3750000  -0.2165063  -0.4592793), wk =   0.0625000
        k(   19) = (   0.3750000  -0.5051814  -0.0510310), wk =   0.1250000
        k(   20) = (   0.3750000  -0.5051814   0.2551552), wk =   0.1250000

     Check: negative core charge=   -0.000002

     Initial potential from superposition of free atoms

     starting charge     191.9441, renormalised to     192.0000
     Starting wfcs are  320 randomized atomic wfcs
     Checking if some PAW data can be deallocated...

     Self-consistent Calculation

     iteration #  1     ecut=    50.00 Ry     beta= 0.40
     Davidson diagonalization with overlap
     ethr =  1.00E-02,  avg # of iterations =  1.0

     total energy              =   -4520.55344280 Ry
     estimated scf accuracy    <      13.45072138 Ry

     iteration #  2     ecut=    50.00 Ry     beta= 0.40
     Davidson diagonalization with overlap
     ethr =  7.01E-03,  avg # of iterations =  6.0
     Minimization algorithm failed to find Fermi energy: reverting to bisection
     Possible cause: smearing is larger than the electronic band-gap.

[...]

     iteration # 11     ecut=    50.00 Ry     beta= 0.40
     Davidson diagonalization with overlap
     c_bands:  1 eigenvalues not converged
     ethr =  3.08E-05,  avg # of iterations = 19.4

[...]

     iteration # 21     ecut=    50.00 Ry     beta= 0.40
     Davidson diagonalization with overlap
     c_bands:  1 eigenvalues not converged
     ethr =  9.92E-07,  avg # of iterations = 14.2

[...]

     total energy              =   -4526.71790186 Ry
     estimated scf accuracy    <       0.00098482 Ry

     iteration # 23     ecut=    50.00 Ry     beta= 0.40
     Davidson diagonalization with overlap
     ethr =  5.13E-07,  avg # of iterations =  5.0

     End of self-consistent calculation

          k = 0.1250-0.0722-0.0510 ( 13242 PWs)   bands (ev):

   -22.0160 -21.8483 -21.8394 -21.8394 -21.8375 -21.7831 -21.7831 -21.7811
    -8.0808  -8.0797  -8.0797  -7.7754  -7.7746  -7.7743  -7.7488  -5.9427
    -5.7950  -5.7937  -5.7932  -5.7382  -5.7369  -5.7367  -5.5789  -4.8509
    -4.7327  -4.7317  -4.7315  -4.5289  -4.5284  -4.5277  -4.4354  -4.4344
    -4.4342  -4.4138  -4.4138  -4.2169  -4.2164  -4.2152  -4.2141  -4.2141
    -4.0408  -1.9055  -1.8846  -1.8838  -1.8836  -1.2715  -1.2705  -1.2705
     6.7654   6.7656   6.7656   6.8204   6.8204   6.8815   7.6137   7.6137
     7.6820   7.6830   7.6831   7.6908   7.6910   7.6916   9.0901   9.0902
     9.0903   9.1194   9.1710   9.1718   9.1719   9.1881   9.1881   9.1887
     9.2545   9.2547   9.2549   9.3466   9.7084   9.7085   9.7196   9.7197
     9.7202   9.7772   9.7772   9.7779   9.8244   9.8252   9.8253   9.8611
     9.8615   9.8619   9.8824   9.8948   9.8949   9.8950   9.9053   9.9054
    12.3470  12.3473  12.3476  12.3783  12.3930  12.3931  12.3931  12.4642
    12.4651  12.4670  12.4717  12.4729  12.4752  12.5047  12.5051  12.5078
    12.5136  12.5150  12.5173

[...]

          k = 0.3750-0.5052 0.2552 ( 13166 PWs)   bands (ev):

   -21.9136 -21.8937 -21.8707 -21.8569 -21.8132 -21.8030 -21.7931 -21.7891
    -7.5005  -7.4784  -7.4695  -7.4541  -7.4366  -7.3708  -7.2489  -7.1599
    -7.1452  -7.1034  -7.0227  -6.8376  -6.2011  -5.9170  -5.7856  -5.5504
    -4.6811  -4.6701  -4.5712  -4.5616  -4.5117  -4.4754  -4.4005  -4.3622
    -4.0345  -4.0052  -3.7248  -3.5761  -2.9939  -2.8559  -2.8390  -2.8074
    -2.6705  -2.6533  -2.4278  -2.3799  -2.3667  -2.2981  -2.2833  -2.2435
     7.4784   7.5110   7.5575   7.5921   7.7251   7.7581   7.7816   7.8195
     7.8717   7.9038   7.9160   8.0205   8.1186   8.1259   8.1807   8.2421
     8.3201   8.3215   8.3398   8.4497   8.4565   8.5921   8.6179   8.7073
     8.8025   8.8744   8.8952   8.9563   9.2890   9.3884   9.4128   9.4784
     9.4969   9.5519   9.5917   9.6639   9.7119   9.7158   9.9512  10.0387
    10.2187  10.2191  10.2226  10.2853  10.3162  10.3708  10.3909  10.3972
    12.4009  12.4017  12.4071  12.4157  12.4613  12.4713  12.4993  12.5111
    12.5154  12.5159  12.5275  12.5348  12.5511  12.5547  12.5695  12.5925
    12.5941  12.6015  12.6065

     the Fermi energy is    11.6761 ev

!    total energy              =   -4526.71806877 Ry

     total all-electron energy =     -6268.268347 Ry
     estimated scf accuracy    <       0.00004513 Ry
     smearing contrib. (-TS)   =       0.00000000 Ry
     internal energy E=F+TS    =   -4526.71806877 Ry

     The total energy is F=E-TS. E is the sum of the following terms:
     one-electron contribution =     -99.07511683 Ry
     hartree contribution      =     198.72160278 Ry
     xc contribution           =    -202.40152214 Ry
     ewald contribution        =   -1006.38839996 Ry
     one-center paw contrib.   =   -3417.57463262 Ry

     convergence has been achieved in  23 iterations

     Writing all to output data dir ./out/CeO2.save/

     General routines

     Parallel routines

   This run was terminated on:  13: 9:39  23Sep2022

   JOB DONE.