     Program PWSCF v.7.0 starts on 13Sep2022 at 21:38:20

     R & G space division:  proc/nbgrp/npool/nimage =      48

     Reading input from CeO2.in

     Current dimensions of program PWSCF are:
     Max number of different atomic species (ntypx) = 10
     Max number of k-points (npk) =  40000
     Max angular momentum in pseudopotentials (lmaxx) =  4
     file O.pbe-n-kjpaw_psl.0.1.UPF: wavefunction(s)  2P renormalized
     Found identity + (  0.0000  0.0000 -0.5000) symmetry
     This is a supercell, fractional translations are disabled
     Message from routine setup:
     using ibrav=0 with symmetry is DISCOURAGED, use correct ibrav instead

     Subspace diagonalization in iterative solution of the eigenvalue problem:
     a serial algorithm will be used

     Using Slab Decomposition

     bravais-lattice index     =            0
     lattice parameter (alat)  =      14.6116  a.u.
     unit-cell volume          =    2205.8760 (a.u.)^3
     number of atoms/cell      =           24
     number of atomic types    =            2
     number of electrons       =       192.00
     number of Kohn-Sham states=          115
     kinetic-energy cutoff     =      50.0000  Ry
     charge density cutoff     =     400.0000  Ry
     scf convergence threshold =      1.0E-04
     mixing beta               =       0.4000
     number of iterations used =            8  plain     mixing
     Exchange-correlation= SLA  PW   PBX  PBC
                           (   1   4   3   4   0   0   0)

     celldm(1)=  14.611631  celldm(2)=   0.000000  celldm(3)=   0.000000
     celldm(4)=   0.000000  celldm(5)=   0.000000  celldm(6)=   0.000000

     crystal axes: (cart. coord. in units of alat)
               a(1) = (   1.000000   0.000000   0.000000 )
               a(2) = (   0.500000   0.866025   0.000000 )
               a(3) = (   0.500000   0.288675   0.816497 )

     reciprocal axes: (cart. coord. in units 2 pi/alat)
               b(1) = (  1.000000 -0.577350 -0.408248 )
               b(2) = (  0.000000  1.154700 -0.408248 )
               b(3) = (  0.000000  0.000000  1.224745 )

     PseudoPot. # 1 for Ce read from file:
     ./pseudo/Ce.GGA-PBE-paw-v1.0.UPF
     MD5 check sum: f2b950f613061344c13339c8d844425d
     Pseudo is Projector augmented-wave + core cor, Zval = 12.0
     Generated using ATOMPAW code
     Shape of augmentation charge: BESSEL
     Using radial grid of 1102 points,  8 beta functions with:
                l(1) =   0
                l(2) =   0
                l(3) =   1
                l(4) =   1
                l(5) =   2
                l(6) =   2
                l(7) =   3
                l(8) =   3
     Q(r) pseudized with 0 coefficients

     PseudoPot. # 2 for O  read from file:
     ./pseudo/O.pbe-n-kjpaw_psl.0.1.UPF
     MD5 check sum: 0234752ac141de4415c5fc33072bef88
     Pseudo is Projector augmented-wave + core cor, Zval =  6.0
     Generated using "atomic" code by A. Dal Corso  v.5.0.99 svn rev. 10869
     Shape of augmentation charge: BESSEL
     Using radial grid of 1095 points,  4 beta functions with:
                l(1) =   0
                l(2) =   0
                l(3) =   1
                l(4) =   1
     Q(r) pseudized with 0 coefficients

     atomic species   valence    mass     pseudopotential
        Ce            12.00   140.11600     Ce( 1.00)
        O              6.00    15.99940     O ( 1.00)

     12 Sym. Ops., with inversion, found

   Cartesian axes

     site n.     atom                  positions (alat units)
         1           Ce  tau(   1) = (   0.0000000   0.0000000   0.0000000  )
         2           Ce  tau(   2) = (   0.2500000   0.1443376   0.4082483  )
         3           Ce  tau(   3) = (   0.2500000   0.4330127   0.0000000  )
         4           Ce  tau(   4) = (   0.4999999   0.5773503   0.4082483  )
         5           Ce  tau(   5) = (   0.5000000   0.0000000   0.0000000  )
         6           Ce  tau(   6) = (   0.7500000   0.1443376   0.4082483  )
         7           Ce  tau(   7) = (   0.7500000   0.4330127   0.0000000  )
         8           Ce  tau(   8) = (   0.9999999   0.5773503   0.4082483  )
         9           O   tau(   9) = (   0.7500000   0.4330127   0.3061862  )
        10           O   tau(  10) = (   0.9999999   0.5773503   0.7144345  )
        11           O   tau(  11) = (   0.9999999   0.8660254   0.3061862  )
        12           O   tau(  12) = (   1.2499999   1.0103630   0.7144345  )
        13           O   tau(  13) = (   1.2500000   0.4330127   0.3061862  )
        14           O   tau(  14) = (   1.4999999   0.5773503   0.7144345  )
        15           O   tau(  15) = (   1.4999999   0.8660254   0.3061862  )
        16           O   tau(  16) = (   1.7499999   1.0103630   0.7144345  )
        17           O   tau(  17) = (   0.2500000   0.1443376   0.1020621  )
        18           O   tau(  18) = (   0.5000000   0.2886751   0.5103104  )
        19           O   tau(  19) = (   0.5000000   0.5773503   0.1020621  )
        20           O   tau(  20) = (   0.7499999   0.7216879   0.5103104  )
        21           O   tau(  21) = (   0.7500000   0.1443376   0.1020621  )
        22           O   tau(  22) = (   1.0000000   0.2886751   0.5103104  )
        23           O   tau(  23) = (   1.0000000   0.5773503   0.1020621  )
        24           O   tau(  24) = (   1.2499999   0.7216879   0.5103104  )

     number of k points=    20  Methfessel-Paxton smearing, width (Ry)=  0.0100
                       cart. coord. in units 2pi/alat
        k(    1) = (   0.1250000  -0.0721688  -0.0510310), wk =   0.0625000
        k(    2) = (   0.1250000  -0.0721688   0.2551552), wk =   0.0625000
        k(    3) = (   0.1250000  -0.0721688  -0.6634034), wk =   0.0625000
        k(    4) = (   0.1250000  -0.0721688  -0.3572172), wk =   0.0625000
        k(    5) = (   0.1250000   0.2165064  -0.1530931), wk =   0.1250000
        k(    6) = (   0.1250000   0.2165064  -0.7654655), wk =   0.1250000
        k(    7) = (   0.1250000  -0.6495190   0.1530931), wk =   0.1250000
        k(    8) = (   0.1250000  -0.6495190   0.4592793), wk =   0.1250000
        k(    9) = (   0.1250000  -0.6495190  -0.4592793), wk =   0.1250000
        k(   10) = (   0.1250000  -0.6495190  -0.1530931), wk =   0.1250000
        k(   11) = (   0.1250000  -0.3608439   0.0510310), wk =   0.1250000
        k(   12) = (   0.1250000  -0.3608439   0.3572172), wk =   0.1250000
        k(   13) = (   0.1250000  -0.3608439  -0.5613414), wk =   0.1250000
        k(   14) = (   0.1250000  -0.3608439  -0.2551552), wk =   0.1250000
        k(   15) = (   0.3750000  -0.2165063  -0.1530931), wk =   0.0625000
        k(   16) = (   0.3750000  -0.2165063   0.1530931), wk =   0.0625000
        k(   17) = (   0.3750000  -0.2165063  -0.7654655), wk =   0.0625000
        k(   18) = (   0.3750000  -0.2165063  -0.4592793), wk =   0.0625000
        k(   19) = (   0.3750000  -0.5051814  -0.0510310), wk =   0.1250000
        k(   20) = (   0.3750000  -0.5051814   0.2551552), wk =   0.1250000

     Check: negative core charge=   -0.000002

     Initial potential from superposition of free atoms

     starting charge     191.9441, renormalised to     192.0000
     Starting wfcs are  320 randomized atomic wfcs
     Checking if some PAW data can be deallocated...

     Self-consistent Calculation

     iteration #  1     ecut=    50.00 Ry     beta= 0.40
     Davidson diagonalization with overlap
     ethr =  1.00E-02,  avg # of iterations =  1.0

     total energy              =   -4520.55350215 Ry
     estimated scf accuracy    <      13.45115503 Ry

     iteration #  2     ecut=    50.00 Ry     beta= 0.40
     Davidson diagonalization with overlap
     ethr =  7.01E-03,  avg # of iterations =  6.0
     Minimization algorithm failed to find Fermi energy: reverting to bisection
     Possible cause: smearing is larger than the electronic band-gap.

[...]

     iteration # 11     ecut=    50.00 Ry     beta= 0.40
     Davidson diagonalization with overlap
     c_bands:  1 eigenvalues not converged
     ethr =  8.84E-05,  avg # of iterations =  3.5

[...]

     iteration # 14     ecut=    50.00 Ry     beta= 0.40
     Davidson diagonalization with overlap
     ethr =  6.54E-05,  avg # of iterations =  3.5

[...]

     total energy              =   -4526.71801612 Ry
     estimated scf accuracy    <       0.00034710 Ry

     iteration # 23     ecut=    50.00 Ry     beta= 0.40
     Davidson diagonalization with overlap
     c_bands:  1 eigenvalues not converged
     c_bands:  2 eigenvalues not converged
     ethr =  1.81E-07,  avg # of iterations =  8.4

     End of self-consistent calculation

          k = 0.1250-0.0722-0.0510 ( 13242 PWs)   bands (ev):

   -22.0168 -21.8490 -21.8397 -21.8397 -21.8392 -21.7835 -21.7835 -21.7828
    -8.0798  -8.0795  -8.0795  -7.7745  -7.7742  -7.7742  -7.7484  -5.9418
    -5.7932  -5.7928  -5.7927  -5.7370  -5.7366  -5.7365  -5.5780  -4.8499
    -4.7328  -4.7323  -4.7323  -4.5289  -4.5287  -4.5283  -4.4356  -4.4351
    -4.4351  -4.4145  -4.4144  -4.2169  -4.2167  -4.2162  -4.2148  -4.2147
    -4.0414  -1.9055  -1.8842  -1.8839  -1.8839  -1.2712  -1.2709  -1.2709
     6.7663   6.7665   6.7665   6.8212   6.8213   6.8823   7.6145   7.6145
     7.6833   7.6836   7.6836   7.6918   7.6919   7.6921   9.0910   9.0910
     9.0911   9.1201   9.1719   9.1722   9.1722   9.1888   9.1888   9.1890
     9.2551   9.2552   9.2552   9.3474   9.7090   9.7090   9.7202   9.7203
     9.7205   9.7781   9.7782   9.7784   9.8255   9.8258   9.8258   9.8620
     9.8621   9.8622   9.8826   9.8952   9.8952   9.8953   9.9057   9.9058
    12.3456  12.3462  12.3473  12.3781  12.3916  12.3918  12.3921  12.4633
    12.4635  12.4652  12.4711  12.4714  12.4723  12.5038  12.5053  12.5060
    12.5124  12.5126  12.5175

[...]

          k = 0.3750-0.5052 0.2552 ( 13166 PWs)   bands (ev):

   -21.9143 -21.8944 -21.8714 -21.8577 -21.8140 -21.8037 -21.7938 -21.7901
    -7.4999  -7.4778  -7.4690  -7.4537  -7.4362  -7.3704  -7.2484  -7.1594
    -7.1447  -7.1030  -7.0223  -6.8372  -6.2006  -5.9165  -5.7850  -5.5498
    -4.6817  -4.6706  -4.5718  -4.5621  -4.5123  -4.4760  -4.4010  -4.3627
    -4.0347  -4.0054  -3.7250  -3.5762  -2.9940  -2.8559  -2.8391  -2.8074
    -2.6707  -2.6534  -2.4278  -2.3799  -2.3668  -2.2982  -2.2833  -2.2436
     7.4793   7.5118   7.5582   7.5929   7.7259   7.7589   7.7824   7.8202
     7.8724   7.9045   7.9168   8.0212   8.1196   8.1264   8.1814   8.2428
     8.3214   8.3217   8.3406   8.4504   8.4571   8.5929   8.6187   8.7080
     8.8032   8.8752   8.8958   8.9571   9.2897   9.3890   9.4132   9.4790
     9.4975   9.5523   9.5923   9.6642   9.7125   9.7161   9.9517  10.0393
    10.2195  10.2198  10.2231  10.2859  10.3166  10.3713  10.3915  10.3979
    12.3991  12.4000  12.4057  12.4143  12.4596  12.4694  12.4971  12.5094
    12.5136  12.5139  12.5260  12.5333  12.5493  12.5525  12.5691  12.5923
    12.5940  12.5998  12.6180

     the Fermi energy is    11.6746 ev

!    total energy              =   -4526.71803087 Ry

     total all-electron energy =     -6268.268309 Ry
     estimated scf accuracy    <       0.00009208 Ry
     smearing contrib. (-TS)   =       0.00000000 Ry
     internal energy E=F+TS    =   -4526.71803087 Ry

     The total energy is F=E-TS. E is the sum of the following terms:
     one-electron contribution =     -99.06360677 Ry
     hartree contribution      =     198.72773269 Ry
     xc contribution           =    -202.40163076 Ry
     ewald contribution        =   -1006.38839996 Ry
     one-center paw contrib.   =   -3417.59212607 Ry

     convergence has been achieved in  23 iterations

     Writing all to output data dir ./out/CeO2.save/

     General routines

     Parallel routines

   This run was terminated on:  21:40:15  13Sep2022

   JOB DONE.