     Program PWSCF v.7.0 starts on 22Sep2022 at 18:58:55

     R & G space division:  proc/nbgrp/npool/nimage =      12

     Reading input from CeO2.in

     Current dimensions of program PWSCF are:
     Max number of different atomic species (ntypx) = 10
     Max number of k-points (npk) =  40000
     Max angular momentum in pseudopotentials (lmaxx) =  4
     file O.pbe-n-kjpaw_psl.0.1.UPF: wavefunction(s)  2P renormalized
     Found identity + (  0.0000  0.0000 -0.5000) symmetry
     This is a supercell, fractional translations are disabled
     Message from routine setup:
     using ibrav=0 with symmetry is DISCOURAGED, use correct ibrav instead

     Subspace diagonalization in iterative solution of the eigenvalue problem:
     one sub-group per band group will be used

     Using Slab Decomposition

     bravais-lattice index     =            0
     lattice parameter (alat)  =      14.6116  a.u.
     unit-cell volume          =    2205.8760 (a.u.)^3
     number of atoms/cell      =           24
     number of atomic types    =            2
     number of electrons       =       192.00
     number of Kohn-Sham states=          115
     kinetic-energy cutoff     =      50.0000  Ry
     charge density cutoff     =     400.0000  Ry
     scf convergence threshold =      1.0E-04
     mixing beta               =       0.4000
     number of iterations used =            8  plain     mixing
     Exchange-correlation= SLA  PW   PBX  PBC
                           (   1   4   3   4   0   0   0)

     celldm(1)=  14.611631  celldm(2)=   0.000000  celldm(3)=   0.000000
     celldm(4)=   0.000000  celldm(5)=   0.000000  celldm(6)=   0.000000

     crystal axes: (cart. coord. in units of alat)
               a(1) = (   1.000000   0.000000   0.000000 )
               a(2) = (   0.500000   0.866025   0.000000 )
               a(3) = (   0.500000   0.288675   0.816497 )

     reciprocal axes: (cart. coord. in units 2 pi/alat)
               b(1) = (  1.000000 -0.577350 -0.408248 )
               b(2) = (  0.000000  1.154700 -0.408248 )
               b(3) = (  0.000000  0.000000  1.224745 )

     PseudoPot. # 1 for Ce read from file:
     ./pseudo/Ce.GGA-PBE-paw-v1.0.UPF
     MD5 check sum: f2b950f613061344c13339c8d844425d
     Pseudo is Projector augmented-wave + core cor, Zval = 12.0
     Generated using ATOMPAW code
     Shape of augmentation charge: BESSEL
     Using radial grid of 1102 points,  8 beta functions with:
                l(1) =   0
                l(2) =   0
                l(3) =   1
                l(4) =   1
                l(5) =   2
                l(6) =   2
                l(7) =   3
                l(8) =   3
     Q(r) pseudized with 0 coefficients

     PseudoPot. # 2 for O  read from file:
     ./pseudo/O.pbe-n-kjpaw_psl.0.1.UPF
     MD5 check sum: 0234752ac141de4415c5fc33072bef88
     Pseudo is Projector augmented-wave + core cor, Zval =  6.0
     Generated using "atomic" code by A. Dal Corso  v.5.0.99 svn rev. 10869
     Shape of augmentation charge: BESSEL
     Using radial grid of 1095 points,  4 beta functions with:
                l(1) =   0
                l(2) =   0
                l(3) =   1
                l(4) =   1
     Q(r) pseudized with 0 coefficients

     atomic species   valence    mass     pseudopotential
        Ce            12.00   140.11600     Ce( 1.00)
        O              6.00    15.99940     O ( 1.00)

     12 Sym. Ops., with inversion, found

   Cartesian axes

     site n.     atom                  positions (alat units)
         1           Ce  tau(   1) = (   0.0000000   0.0000000   0.0000000  )
         2           Ce  tau(   2) = (   0.2500000   0.1443376   0.4082483  )
         3           Ce  tau(   3) = (   0.2500000   0.4330127   0.0000000  )
         4           Ce  tau(   4) = (   0.4999999   0.5773503   0.4082483  )
         5           Ce  tau(   5) = (   0.5000000   0.0000000   0.0000000  )
         6           Ce  tau(   6) = (   0.7500000   0.1443376   0.4082483  )
         7           Ce  tau(   7) = (   0.7500000   0.4330127   0.0000000  )
         8           Ce  tau(   8) = (   0.9999999   0.5773503   0.4082483  )
         9           O   tau(   9) = (   0.7500000   0.4330127   0.3061862  )
        10           O   tau(  10) = (   0.9999999   0.5773503   0.7144345  )
        11           O   tau(  11) = (   0.9999999   0.8660254   0.3061862  )
        12           O   tau(  12) = (   1.2499999   1.0103630   0.7144345  )
        13           O   tau(  13) = (   1.2500000   0.4330127   0.3061862  )
        14           O   tau(  14) = (   1.4999999   0.5773503   0.7144345  )
        15           O   tau(  15) = (   1.4999999   0.8660254   0.3061862  )
        16           O   tau(  16) = (   1.7499999   1.0103630   0.7144345  )
        17           O   tau(  17) = (   0.2500000   0.1443376   0.1020621  )
        18           O   tau(  18) = (   0.5000000   0.2886751   0.5103104  )
        19           O   tau(  19) = (   0.5000000   0.5773503   0.1020621  )
        20           O   tau(  20) = (   0.7499999   0.7216879   0.5103104  )
        21           O   tau(  21) = (   0.7500000   0.1443376   0.1020621  )
        22           O   tau(  22) = (   1.0000000   0.2886751   0.5103104  )
        23           O   tau(  23) = (   1.0000000   0.5773503   0.1020621  )
        24           O   tau(  24) = (   1.2499999   0.7216879   0.5103104  )

     number of k points=    20  Methfessel-Paxton smearing, width (Ry)=  0.0100
                       cart. coord. in units 2pi/alat
        k(    1) = (   0.1250000  -0.0721688  -0.0510310), wk =   0.0625000
        k(    2) = (   0.1250000  -0.0721688   0.2551552), wk =   0.0625000
        k(    3) = (   0.1250000  -0.0721688  -0.6634034), wk =   0.0625000
        k(    4) = (   0.1250000  -0.0721688  -0.3572172), wk =   0.0625000
        k(    5) = (   0.1250000   0.2165064  -0.1530931), wk =   0.1250000
        k(    6) = (   0.1250000   0.2165064  -0.7654655), wk =   0.1250000
        k(    7) = (   0.1250000  -0.6495190   0.1530931), wk =   0.1250000
        k(    8) = (   0.1250000  -0.6495190   0.4592793), wk =   0.1250000
        k(    9) = (   0.1250000  -0.6495190  -0.4592793), wk =   0.1250000
        k(   10) = (   0.1250000  -0.6495190  -0.1530931), wk =   0.1250000
        k(   11) = (   0.1250000  -0.3608439   0.0510310), wk =   0.1250000
        k(   12) = (   0.1250000  -0.3608439   0.3572172), wk =   0.1250000
        k(   13) = (   0.1250000  -0.3608439  -0.5613414), wk =   0.1250000
        k(   14) = (   0.1250000  -0.3608439  -0.2551552), wk =   0.1250000
        k(   15) = (   0.3750000  -0.2165063  -0.1530931), wk =   0.0625000
        k(   16) = (   0.3750000  -0.2165063   0.1530931), wk =   0.0625000
        k(   17) = (   0.3750000  -0.2165063  -0.7654655), wk =   0.0625000
        k(   18) = (   0.3750000  -0.2165063  -0.4592793), wk =   0.0625000
        k(   19) = (   0.3750000  -0.5051814  -0.0510310), wk =   0.1250000
        k(   20) = (   0.3750000  -0.5051814   0.2551552), wk =   0.1250000

     Check: negative core charge=   -0.000002

     Initial potential from superposition of free atoms

     starting charge     191.9441, renormalised to     192.0000
     Starting wfcs are  320 randomized atomic wfcs
     Checking if some PAW data can be deallocated...

     Self-consistent Calculation

     iteration #  1     ecut=    50.00 Ry     beta= 0.40
     Davidson diagonalization with overlap
     ethr =  1.00E-02,  avg # of iterations =  1.0

     total energy              =   -4520.55469508 Ry
     estimated scf accuracy    <      13.44958086 Ry

     iteration #  2     ecut=    50.00 Ry     beta= 0.40
     Davidson diagonalization with overlap
     ethr =  7.00E-03,  avg # of iterations =  5.8
     Minimization algorithm failed to find Fermi energy: reverting to bisection
     Possible cause: smearing is larger than the electronic band-gap.

[...]

     iteration # 10     ecut=    50.00 Ry     beta= 0.40
     Davidson diagonalization with overlap
     c_bands:  1 eigenvalues not converged
     ethr =  1.18E-04,  avg # of iterations = 13.8

[...]

     iteration # 21     ecut=    50.00 Ry     beta= 0.40
     Davidson diagonalization with overlap
     c_bands:  2 eigenvalues not converged
     c_bands:  1 eigenvalues not converged
     c_bands:  3 eigenvalues not converged
     c_bands:  3 eigenvalues not converged
     c_bands:  1 eigenvalues not converged
     c_bands:  1 eigenvalues not converged
     c_bands:  1 eigenvalues not converged
     c_bands:  2 eigenvalues not converged
     c_bands:  1 eigenvalues not converged
     c_bands:  1 eigenvalues not converged
     c_bands:  1 eigenvalues not converged
     c_bands:  3 eigenvalues not converged
     c_bands:  1 eigenvalues not converged
     ethr =  8.43E-07,  avg # of iterations = 16.3

     total energy              =   -4526.71800155 Ry
     estimated scf accuracy    <       0.00046897 Ry

     iteration # 22     ecut=    50.00 Ry     beta= 0.40
     Davidson diagonalization with overlap
     ethr =  2.44E-07,  avg # of iterations =  6.1

     End of self-consistent calculation

          k = 0.1250-0.0722-0.0510 ( 13242 PWs)   bands (ev):

   -22.0147 -21.8476 -21.8394 -21.8393 -21.8331 -21.7831 -21.7831 -21.7755
    -8.0816  -8.0815  -8.0789  -7.7765  -7.7759  -7.7735  -7.7493  -5.9439
    -5.7965  -5.7960  -5.7927  -5.7400  -5.7397  -5.7361  -5.5805  -4.8526
    -4.7327  -4.7303  -4.7300  -4.5288  -4.5282  -4.5266  -4.4355  -4.4329
    -4.4328  -4.4126  -4.4125  -4.2170  -4.2166  -4.2131  -4.2129  -4.2127
    -4.0399  -1.9057  -1.8853  -1.8845  -1.8824  -1.2714  -1.2714  -1.2695
     6.7644   6.7645   6.7645   6.8193   6.8194   6.8804   7.6125   7.6126
     7.6805   7.6808   7.6834   7.6888   7.6905   7.6908   9.0886   9.0891
     9.0893   9.1185   9.1699   9.1700   9.1720   9.1862   9.1879   9.1881
     9.2531   9.2540   9.2543   9.3453   9.7074   9.7075   9.7178   9.7198
     9.7198   9.7747   9.7767   9.7768   9.8229   9.8233   9.8251   9.8598
     9.8601   9.8617   9.8815   9.8935   9.8937   9.8947   9.9046   9.9047
    12.3482  12.3503  12.3508  12.3810  12.3955  12.3958  12.3961  12.4654
    12.4656  12.4692  12.4720  12.4768  12.4778  12.5071  12.5094  12.5126
    12.5181  12.5199  12.5231

[...]

          k = 0.3750-0.5052 0.2552 ( 13166 PWs)   bands (ev):

   -21.9126 -21.8925 -21.8694 -21.8553 -21.8122 -21.8018 -21.7923 -21.7852
    -7.5012  -7.4790  -7.4700  -7.4548  -7.4371  -7.3714  -7.2496  -7.1606
    -7.1458  -7.1041  -7.0234  -6.8383  -6.2018  -5.9178  -5.7865  -5.5515
    -4.6804  -4.6689  -4.5704  -4.5605  -4.5107  -4.4744  -4.3994  -4.3609
    -4.0342  -4.0049  -3.7247  -3.5759  -2.9939  -2.8559  -2.8390  -2.8074
    -2.6703  -2.6532  -2.4278  -2.3800  -2.3666  -2.2981  -2.2831  -2.2433
     7.4773   7.5100   7.5563   7.5911   7.7241   7.7570   7.7805   7.8184
     7.8706   7.9028   7.9149   8.0194   8.1176   8.1248   8.1796   8.2412
     8.3192   8.3204   8.3387   8.4485   8.4554   8.5909   8.6169   8.7063
     8.8014   8.8733   8.8942   8.9552   9.2881   9.3874   9.4118   9.4774
     9.4959   9.5510   9.5907   9.6630   9.7112   9.7147   9.9502  10.0377
    10.2173  10.2178  10.2218  10.2843  10.3152  10.3697  10.3897  10.3959
    12.4029  12.4033  12.4098  12.4177  12.4635  12.4734  12.5012  12.5119
    12.5176  12.5194  12.5295  12.5376  12.5525  12.5582  12.5718  12.5966
    12.5973  12.6061  12.6258

     the Fermi energy is    11.6823 ev

!    total energy              =   -4526.71802832 Ry

     total all-electron energy =     -6268.268307 Ry
     estimated scf accuracy    <       0.00008900 Ry
     smearing contrib. (-TS)   =       0.00000000 Ry
     internal energy E=F+TS    =   -4526.71802832 Ry

     The total energy is F=E-TS. E is the sum of the following terms:
     one-electron contribution =     -99.10556987 Ry
     hartree contribution      =     198.74465828 Ry
     xc contribution           =    -202.40863920 Ry
     ewald contribution        =   -1006.38839996 Ry
     one-center paw contrib.   =   -3417.56007756 Ry

     convergence has been achieved in  22 iterations

     Writing all to output data dir ./out/CeO2.save/

     General routines

     Parallel routines

   This run was terminated on:  19: 1:12  22Sep2022

   JOB DONE.