     Program PWSCF v.7.0 starts on 23Sep2022 at 12:50:13

     K-points division:     npool     =       3
     R & G space division:  proc/nbgrp/npool/nimage =       4

     Reading input from CeO2.in

     Current dimensions of program PWSCF are:
     Max number of different atomic species (ntypx) = 10
     Max number of k-points (npk) =  40000
     Max angular momentum in pseudopotentials (lmaxx) =  4
     file O.pbe-n-kjpaw_psl.0.1.UPF: wavefunction(s)  2P renormalized
     Found identity + (  0.0000  0.0000 -0.5000) symmetry
     This is a supercell, fractional translations are disabled
     Message from routine setup:
     using ibrav=0 with symmetry is DISCOURAGED, use correct ibrav instead

     Subspace diagonalization in iterative solution of the eigenvalue problem:
     a serial algorithm will be used

     Using Slab Decomposition

     bravais-lattice index     =            0
     lattice parameter (alat)  =      14.6116  a.u.
     unit-cell volume          =    2205.8760 (a.u.)^3
     number of atoms/cell      =           24
     number of atomic types    =            2
     number of electrons       =       192.00
     number of Kohn-Sham states=          115
     kinetic-energy cutoff     =      50.0000  Ry
     charge density cutoff     =     400.0000  Ry
     scf convergence threshold =      1.0E-04
     mixing beta               =       0.4000
     number of iterations used =            8  plain     mixing
     Exchange-correlation= SLA  PW   PBX  PBC
                           (   1   4   3   4   0   0   0)

     celldm(1)=  14.611631  celldm(2)=   0.000000  celldm(3)=   0.000000
     celldm(4)=   0.000000  celldm(5)=   0.000000  celldm(6)=   0.000000

     crystal axes: (cart. coord. in units of alat)
               a(1) = (   1.000000   0.000000   0.000000 )
               a(2) = (   0.500000   0.866025   0.000000 )
               a(3) = (   0.500000   0.288675   0.816497 )

     reciprocal axes: (cart. coord. in units 2 pi/alat)
               b(1) = (  1.000000 -0.577350 -0.408248 )
               b(2) = (  0.000000  1.154700 -0.408248 )
               b(3) = (  0.000000  0.000000  1.224745 )

     PseudoPot. # 1 for Ce read from file:
     ./pseudo/Ce.GGA-PBE-paw-v1.0.UPF
     MD5 check sum: f2b950f613061344c13339c8d844425d
     Pseudo is Projector augmented-wave + core cor, Zval = 12.0
     Generated using ATOMPAW code
     Shape of augmentation charge: BESSEL
     Using radial grid of 1102 points,  8 beta functions with:
                l(1) =   0
                l(2) =   0
                l(3) =   1
                l(4) =   1
                l(5) =   2
                l(6) =   2
                l(7) =   3
                l(8) =   3
     Q(r) pseudized with 0 coefficients

     PseudoPot. # 2 for O  read from file:
     ./pseudo/O.pbe-n-kjpaw_psl.0.1.UPF
     MD5 check sum: 0234752ac141de4415c5fc33072bef88
     Pseudo is Projector augmented-wave + core cor, Zval =  6.0
     Generated using "atomic" code by A. Dal Corso  v.5.0.99 svn rev. 10869
     Shape of augmentation charge: BESSEL
     Using radial grid of 1095 points,  4 beta functions with:
                l(1) =   0
                l(2) =   0
                l(3) =   1
                l(4) =   1
     Q(r) pseudized with 0 coefficients

     atomic species   valence    mass     pseudopotential
        Ce            12.00   140.11600     Ce( 1.00)
        O              6.00    15.99940     O ( 1.00)

     12 Sym. Ops., with inversion, found

   Cartesian axes

     site n.     atom                  positions (alat units)
         1           Ce  tau(   1) = (   0.0000000   0.0000000   0.0000000  )
         2           Ce  tau(   2) = (   0.2500000   0.1443376   0.4082483  )
         3           Ce  tau(   3) = (   0.2500000   0.4330127   0.0000000  )
         4           Ce  tau(   4) = (   0.4999999   0.5773503   0.4082483  )
         5           Ce  tau(   5) = (   0.5000000   0.0000000   0.0000000  )
         6           Ce  tau(   6) = (   0.7500000   0.1443376   0.4082483  )
         7           Ce  tau(   7) = (   0.7500000   0.4330127   0.0000000  )
         8           Ce  tau(   8) = (   0.9999999   0.5773503   0.4082483  )
         9           O   tau(   9) = (   0.7500000   0.4330127   0.3061862  )
        10           O   tau(  10) = (   0.9999999   0.5773503   0.7144345  )
        11           O   tau(  11) = (   0.9999999   0.8660254   0.3061862  )
        12           O   tau(  12) = (   1.2499999   1.0103630   0.7144345  )
        13           O   tau(  13) = (   1.2500000   0.4330127   0.3061862  )
        14           O   tau(  14) = (   1.4999999   0.5773503   0.7144345  )
        15           O   tau(  15) = (   1.4999999   0.8660254   0.3061862  )
        16           O   tau(  16) = (   1.7499999   1.0103630   0.7144345  )
        17           O   tau(  17) = (   0.2500000   0.1443376   0.1020621  )
        18           O   tau(  18) = (   0.5000000   0.2886751   0.5103104  )
        19           O   tau(  19) = (   0.5000000   0.5773503   0.1020621  )
        20           O   tau(  20) = (   0.7499999   0.7216879   0.5103104  )
        21           O   tau(  21) = (   0.7500000   0.1443376   0.1020621  )
        22           O   tau(  22) = (   1.0000000   0.2886751   0.5103104  )
        23           O   tau(  23) = (   1.0000000   0.5773503   0.1020621  )
        24           O   tau(  24) = (   1.2499999   0.7216879   0.5103104  )

     number of k points=    20  Methfessel-Paxton smearing, width (Ry)=  0.0100
                       cart. coord. in units 2pi/alat
        k(    1) = (   0.1250000  -0.0721688  -0.0510310), wk =   0.0625000
        k(    2) = (   0.1250000  -0.0721688   0.2551552), wk =   0.0625000
        k(    3) = (   0.1250000  -0.0721688  -0.6634034), wk =   0.0625000
        k(    4) = (   0.1250000  -0.0721688  -0.3572172), wk =   0.0625000
        k(    5) = (   0.1250000   0.2165064  -0.1530931), wk =   0.1250000
        k(    6) = (   0.1250000   0.2165064  -0.7654655), wk =   0.1250000
        k(    7) = (   0.1250000  -0.6495190   0.1530931), wk =   0.1250000
        k(    8) = (   0.1250000  -0.6495190   0.4592793), wk =   0.1250000
        k(    9) = (   0.1250000  -0.6495190  -0.4592793), wk =   0.1250000
        k(   10) = (   0.1250000  -0.6495190  -0.1530931), wk =   0.1250000
        k(   11) = (   0.1250000  -0.3608439   0.0510310), wk =   0.1250000
        k(   12) = (   0.1250000  -0.3608439   0.3572172), wk =   0.1250000
        k(   13) = (   0.1250000  -0.3608439  -0.5613414), wk =   0.1250000
        k(   14) = (   0.1250000  -0.3608439  -0.2551552), wk =   0.1250000
        k(   15) = (   0.3750000  -0.2165063  -0.1530931), wk =   0.0625000
        k(   16) = (   0.3750000  -0.2165063   0.1530931), wk =   0.0625000
        k(   17) = (   0.3750000  -0.2165063  -0.7654655), wk =   0.0625000
        k(   18) = (   0.3750000  -0.2165063  -0.4592793), wk =   0.0625000
        k(   19) = (   0.3750000  -0.5051814  -0.0510310), wk =   0.1250000
        k(   20) = (   0.3750000  -0.5051814   0.2551552), wk =   0.1250000

     Check: negative core charge=   -0.000002

     Initial potential from superposition of free atoms

     starting charge     191.9441, renormalised to     192.0000
     Starting wfcs are  320 randomized atomic wfcs
     Checking if some PAW data can be deallocated...

     Self-consistent Calculation

     iteration #  1     ecut=    50.00 Ry     beta= 0.40
     Davidson diagonalization with overlap
     ethr =  1.00E-02,  avg # of iterations =  1.0

     total energy              =   -4520.55557490 Ry
     estimated scf accuracy    <      13.44750416 Ry

     iteration #  2     ecut=    50.00 Ry     beta= 0.40
     Davidson diagonalization with overlap
     ethr =  7.00E-03,  avg # of iterations =  5.9
     Minimization algorithm failed to find Fermi energy: reverting to bisection
     Possible cause: smearing is larger than the electronic band-gap.

[...]

     iteration # 11     ecut=    50.00 Ry     beta= 0.40
     Davidson diagonalization with overlap
     c_bands:  1 eigenvalues not converged
     c_bands:  1 eigenvalues not converged
     ethr =  4.75E-05,  avg # of iterations = 18.2

[...]

     iteration # 22     ecut=    50.00 Ry     beta= 0.40
     Davidson diagonalization with overlap
     c_bands:  2 eigenvalues not converged
     ethr =  5.84E-07,  avg # of iterations = 14.3

[...]

     total energy              =   -4526.71808701 Ry
     estimated scf accuracy    <       0.00011818 Ry

     iteration # 25     ecut=    50.00 Ry     beta= 0.40
     Davidson diagonalization with overlap
     ethr =  6.16E-08,  avg # of iterations =  5.0

     End of self-consistent calculation

          k = 0.1250-0.0722-0.0510 ( 13242 PWs)   bands (ev):

   -22.0152 -21.8473 -21.8383 -21.8376 -21.8376 -21.7820 -21.7814 -21.7814
    -8.0803  -8.0803  -8.0802  -7.7750  -7.7749  -7.7749  -7.7490  -5.9432
    -5.7945  -5.7944  -5.7942  -5.7382  -5.7381  -5.7380  -5.5798  -4.8518
    -4.7315  -4.7315  -4.7312  -4.5282  -4.5280  -4.5279  -4.4342  -4.4342
    -4.4339  -4.4133  -4.4132  -4.2161  -4.2156  -4.2156  -4.2135  -4.2135
    -4.0404  -1.9056  -1.8842  -1.8842  -1.8841  -1.2710  -1.2710  -1.2709
     6.7652   6.7652   6.7652   6.8200   6.8200   6.8810   7.6132   7.6132
     7.6821   7.6822   7.6823   7.6906   7.6906   7.6907   9.0895   9.0896
     9.0896   9.1190   9.1709   9.1709   9.1710   9.1877   9.1878   9.1878
     9.2541   9.2541   9.2541   9.3459   9.7080   9.7080   9.7193   9.7194
     9.7194   9.7766   9.7767   9.7767   9.8242   9.8243   9.8243   9.8608
     9.8609   9.8610   9.8816   9.8941   9.8942   9.8943   9.9048   9.9048
    12.3483  12.3483  12.3487  12.3794  12.3940  12.3942  12.3944  12.4652
    12.4655  12.4657  12.4730  12.4732  12.4736  12.5052  12.5062  12.5073
    12.5140  12.5147  12.5186

[...]

          k = 0.3750-0.5052 0.2552 ( 13166 PWs)   bands (ev):

   -21.9127 -21.8928 -21.8697 -21.8561 -21.8123 -21.8020 -21.7922 -21.7885
    -7.5006  -7.4785  -7.4697  -7.4544  -7.4369  -7.3711  -7.2491  -7.1601
    -7.1455  -7.1037  -7.0230  -6.8379  -6.2014  -5.9174  -5.7860  -5.5510
    -4.6805  -4.6695  -4.5706  -4.5610  -4.5111  -4.4748  -4.3999  -4.3616
    -4.0343  -4.0050  -3.7247  -3.5760  -2.9939  -2.8559  -2.8391  -2.8074
    -2.6705  -2.6533  -2.4278  -2.3799  -2.3667  -2.2982  -2.2834  -2.2435
     7.4780   7.5106   7.5570   7.5916   7.7247   7.7576   7.7811   7.8190
     7.8711   7.9033   7.9155   8.0200   8.1183   8.1252   8.1801   8.2417
     8.3202   8.3205   8.3393   8.4491   8.4559   8.5915   8.6175   8.7067
     8.8020   8.8739   8.8946   8.9557   9.2885   9.3878   9.4121   9.4778
     9.4963   9.5512   9.5912   9.6633   9.7115   9.7149   9.9506  10.0381
    10.2179  10.2183  10.2220  10.2847  10.3155  10.3701  10.3901  10.3964
    12.4020  12.4029  12.4084  12.4170  12.4628  12.4726  12.5005  12.5123
    12.5165  12.5178  12.5290  12.5370  12.5527  12.5563  12.5741  12.5940
    12.5958  12.6035  12.6075

     the Fermi energy is    11.6799 ev

!    total energy              =   -4526.71807845 Ry

     total all-electron energy =     -6268.268357 Ry
     estimated scf accuracy    <       0.00004139 Ry
     smearing contrib. (-TS)   =       0.00000000 Ry
     internal energy E=F+TS    =   -4526.71807845 Ry

     The total energy is F=E-TS. E is the sum of the following terms:
     one-electron contribution =     -99.07369750 Ry
     hartree contribution      =     198.73167975 Ry
     xc contribution           =    -202.40332045 Ry
     ewald contribution        =   -1006.38839996 Ry
     one-center paw contrib.   =   -3417.58434029 Ry

     convergence has been achieved in  25 iterations

     Writing all to output data dir ./out/CeO2.save/

     General routines

     Parallel routines

   This run was terminated on:  12:52:14  23Sep2022

   JOB DONE.