     Program PWSCF v.7.0 starts on 22Sep2022 at 19:34: 7

     K-points division:     npool     =       2
     R & G space division:  proc/nbgrp/npool/nimage =       6

     Reading input from CeO2.in

     Current dimensions of program PWSCF are:
     Max number of different atomic species (ntypx) = 10
     Max number of k-points (npk) =  40000
     Max angular momentum in pseudopotentials (lmaxx) =  4
     file O.pbe-n-kjpaw_psl.0.1.UPF: wavefunction(s)  2P renormalized
     Found identity + (  0.0000  0.0000 -0.5000) symmetry
     This is a supercell, fractional translations are disabled
     Message from routine setup:
     using ibrav=0 with symmetry is DISCOURAGED, use correct ibrav instead

     Subspace diagonalization in iterative solution of the eigenvalue problem:
     one sub-group per band group will be used

     Using Slab Decomposition

     bravais-lattice index     =            0
     lattice parameter (alat)  =      14.6116  a.u.
     unit-cell volume          =    2205.8760 (a.u.)^3
     number of atoms/cell      =           24
     number of atomic types    =            2
     number of electrons       =       192.00
     number of Kohn-Sham states=          115
     kinetic-energy cutoff     =      50.0000  Ry
     charge density cutoff     =     400.0000  Ry
     scf convergence threshold =      1.0E-04
     mixing beta               =       0.4000
     number of iterations used =            8  plain     mixing
     Exchange-correlation= SLA  PW   PBX  PBC
                           (   1   4   3   4   0   0   0)

     celldm(1)=  14.611631  celldm(2)=   0.000000  celldm(3)=   0.000000
     celldm(4)=   0.000000  celldm(5)=   0.000000  celldm(6)=   0.000000

     crystal axes: (cart. coord. in units of alat)
               a(1) = (   1.000000   0.000000   0.000000 )
               a(2) = (   0.500000   0.866025   0.000000 )
               a(3) = (   0.500000   0.288675   0.816497 )

     reciprocal axes: (cart. coord. in units 2 pi/alat)
               b(1) = (  1.000000 -0.577350 -0.408248 )
               b(2) = (  0.000000  1.154700 -0.408248 )
               b(3) = (  0.000000  0.000000  1.224745 )

     PseudoPot. # 1 for Ce read from file:
     ./pseudo/Ce.GGA-PBE-paw-v1.0.UPF
     MD5 check sum: f2b950f613061344c13339c8d844425d
     Pseudo is Projector augmented-wave + core cor, Zval = 12.0
     Generated using ATOMPAW code
     Shape of augmentation charge: BESSEL
     Using radial grid of 1102 points,  8 beta functions with:
                l(1) =   0
                l(2) =   0
                l(3) =   1
                l(4) =   1
                l(5) =   2
                l(6) =   2
                l(7) =   3
                l(8) =   3
     Q(r) pseudized with 0 coefficients

     PseudoPot. # 2 for O  read from file:
     ./pseudo/O.pbe-n-kjpaw_psl.0.1.UPF
     MD5 check sum: 0234752ac141de4415c5fc33072bef88
     Pseudo is Projector augmented-wave + core cor, Zval =  6.0
     Generated using "atomic" code by A. Dal Corso  v.5.0.99 svn rev. 10869
     Shape of augmentation charge: BESSEL
     Using radial grid of 1095 points,  4 beta functions with:
                l(1) =   0
                l(2) =   0
                l(3) =   1
                l(4) =   1
     Q(r) pseudized with 0 coefficients

     atomic species   valence    mass     pseudopotential
        Ce            12.00   140.11600     Ce( 1.00)
        O              6.00    15.99940     O ( 1.00)

     12 Sym. Ops., with inversion, found

   Cartesian axes

     site n.     atom                  positions (alat units)
         1           Ce  tau(   1) = (   0.0000000   0.0000000   0.0000000  )
         2           Ce  tau(   2) = (   0.2500000   0.1443376   0.4082483  )
         3           Ce  tau(   3) = (   0.2500000   0.4330127   0.0000000  )
         4           Ce  tau(   4) = (   0.4999999   0.5773503   0.4082483  )
         5           Ce  tau(   5) = (   0.5000000   0.0000000   0.0000000  )
         6           Ce  tau(   6) = (   0.7500000   0.1443376   0.4082483  )
         7           Ce  tau(   7) = (   0.7500000   0.4330127   0.0000000  )
         8           Ce  tau(   8) = (   0.9999999   0.5773503   0.4082483  )
         9           O   tau(   9) = (   0.7500000   0.4330127   0.3061862  )
        10           O   tau(  10) = (   0.9999999   0.5773503   0.7144345  )
        11           O   tau(  11) = (   0.9999999   0.8660254   0.3061862  )
        12           O   tau(  12) = (   1.2499999   1.0103630   0.7144345  )
        13           O   tau(  13) = (   1.2500000   0.4330127   0.3061862  )
        14           O   tau(  14) = (   1.4999999   0.5773503   0.7144345  )
        15           O   tau(  15) = (   1.4999999   0.8660254   0.3061862  )
        16           O   tau(  16) = (   1.7499999   1.0103630   0.7144345  )
        17           O   tau(  17) = (   0.2500000   0.1443376   0.1020621  )
        18           O   tau(  18) = (   0.5000000   0.2886751   0.5103104  )
        19           O   tau(  19) = (   0.5000000   0.5773503   0.1020621  )
        20           O   tau(  20) = (   0.7499999   0.7216879   0.5103104  )
        21           O   tau(  21) = (   0.7500000   0.1443376   0.1020621  )
        22           O   tau(  22) = (   1.0000000   0.2886751   0.5103104  )
        23           O   tau(  23) = (   1.0000000   0.5773503   0.1020621  )
        24           O   tau(  24) = (   1.2499999   0.7216879   0.5103104  )

     number of k points=    20  Methfessel-Paxton smearing, width (Ry)=  0.0100
                       cart. coord. in units 2pi/alat
        k(    1) = (   0.1250000  -0.0721688  -0.0510310), wk =   0.0625000
        k(    2) = (   0.1250000  -0.0721688   0.2551552), wk =   0.0625000
        k(    3) = (   0.1250000  -0.0721688  -0.6634034), wk =   0.0625000
        k(    4) = (   0.1250000  -0.0721688  -0.3572172), wk =   0.0625000
        k(    5) = (   0.1250000   0.2165064  -0.1530931), wk =   0.1250000
        k(    6) = (   0.1250000   0.2165064  -0.7654655), wk =   0.1250000
        k(    7) = (   0.1250000  -0.6495190   0.1530931), wk =   0.1250000
        k(    8) = (   0.1250000  -0.6495190   0.4592793), wk =   0.1250000
        k(    9) = (   0.1250000  -0.6495190  -0.4592793), wk =   0.1250000
        k(   10) = (   0.1250000  -0.6495190  -0.1530931), wk =   0.1250000
        k(   11) = (   0.1250000  -0.3608439   0.0510310), wk =   0.1250000
        k(   12) = (   0.1250000  -0.3608439   0.3572172), wk =   0.1250000
        k(   13) = (   0.1250000  -0.3608439  -0.5613414), wk =   0.1250000
        k(   14) = (   0.1250000  -0.3608439  -0.2551552), wk =   0.1250000
        k(   15) = (   0.3750000  -0.2165063  -0.1530931), wk =   0.0625000
        k(   16) = (   0.3750000  -0.2165063   0.1530931), wk =   0.0625000
        k(   17) = (   0.3750000  -0.2165063  -0.7654655), wk =   0.0625000
        k(   18) = (   0.3750000  -0.2165063  -0.4592793), wk =   0.0625000
        k(   19) = (   0.3750000  -0.5051814  -0.0510310), wk =   0.1250000
        k(   20) = (   0.3750000  -0.5051814   0.2551552), wk =   0.1250000

     Check: negative core charge=   -0.000002

     Initial potential from superposition of free atoms

     starting charge     191.9441, renormalised to     192.0000
     Starting wfcs are  320 randomized atomic wfcs
     Checking if some PAW data can be deallocated...

     Self-consistent Calculation

     iteration #  1     ecut=    50.00 Ry     beta= 0.40
     Davidson diagonalization with overlap
     ethr =  1.00E-02,  avg # of iterations =  1.0

     total energy              =   -4520.55279483 Ry
     estimated scf accuracy    <      13.45158098 Ry

[...]

     iteration # 10     ecut=    50.00 Ry     beta= 0.40
     Davidson diagonalization with overlap
     c_bands:  1 eigenvalues not converged
     ethr =  1.04E-04,  avg # of iterations = 14.4

[...]

     iteration # 22     ecut=    50.00 Ry     beta= 0.40
     Davidson diagonalization with overlap
     c_bands:  2 eigenvalues not converged
     c_bands:  1 eigenvalues not converged
     ethr =  1.92E-07,  avg # of iterations = 11.0

[...]

     total energy              =   -4526.71808438 Ry
     estimated scf accuracy    <       0.00017006 Ry

     iteration # 25     ecut=    50.00 Ry     beta= 0.40
     Davidson diagonalization with overlap
     ethr =  8.86E-08,  avg # of iterations =  5.1

     End of self-consistent calculation

          k = 0.1250-0.0722-0.0510 ( 13242 PWs)   bands (ev):

   -22.0129 -21.8451 -21.8360 -21.8360 -21.8346 -21.7797 -21.7797 -21.7784
    -8.0803  -8.0803  -8.0795  -7.7749  -7.7748  -7.7741  -7.7486  -5.9435
    -5.7951  -5.7950  -5.7941  -5.7386  -5.7386  -5.7373  -5.5803  -4.8524
    -4.7303  -4.7296  -4.7295  -4.5270  -4.5269  -4.5265  -4.4329  -4.4322
    -4.4321  -4.4116  -4.4115  -4.2145  -4.2145  -4.2140  -4.2118  -4.2118
    -4.0388  -1.9049  -1.8837  -1.8836  -1.8829  -1.2702  -1.2702  -1.2696
     6.7650   6.7650   6.7651   6.8197   6.8198   6.8808   7.6129   7.6130
     7.6817   7.6817   7.6825   7.6900   7.6906   7.6906   9.0892   9.0893
     9.0894   9.1189   9.1707   9.1708   9.1715   9.1874   9.1879   9.1879
     9.2540   9.2543   9.2544   9.3455   9.7081   9.7082   9.7192   9.7197
     9.7197   9.7759   9.7766   9.7766   9.8238   9.8239   9.8245   9.8607
     9.8608   9.8613   9.8820   9.8943   9.8944   9.8946   9.9051   9.9052
    12.3520  12.3522  12.3526  12.3835  12.3983  12.3984  12.3991  12.4693
    12.4698  12.4709  12.4773  12.4782  12.4790  12.5118  12.5124  12.5127
    12.5202  12.5214  12.5228

[...]

          k = 0.3750-0.5052 0.2552 ( 13166 PWs)   bands (ev):

   -21.9104 -21.8905 -21.8674 -21.8538 -21.8100 -21.7997 -21.7899 -21.7861
    -7.5004  -7.4783  -7.4694  -7.4542  -7.4366  -7.3708  -7.2489  -7.1599
    -7.1452  -7.1035  -7.0228  -6.8377  -6.2013  -5.9173  -5.7860  -5.5510
    -4.6789  -4.6679  -4.5690  -4.5594  -4.5095  -4.4732  -4.3982  -4.3599
    -4.0331  -4.0040  -3.7237  -3.5751  -2.9930  -2.8550  -2.8382  -2.8065
    -2.6695  -2.6523  -2.4270  -2.3791  -2.3658  -2.2973  -2.2825  -2.2425
     7.4778   7.5104   7.5568   7.5915   7.7245   7.7574   7.7810   7.8189
     7.8709   7.9032   7.9153   8.0199   8.1180   8.1252   8.1800   8.2417
     8.3197   8.3208   8.3391   8.4489   8.4558   8.5913   8.6174   8.7067
     8.8019   8.8737   8.8946   8.9555   9.2885   9.3878   9.4122   9.4778
     9.4962   9.5514   9.5912   9.6635   9.7116   9.7151   9.9507  10.0382
    10.2176  10.2181  10.2222  10.2848  10.3157  10.3702  10.3900  10.3962
    12.4056  12.4065  12.4122  12.4207  12.4663  12.4762  12.5044  12.5162
    12.5205  12.5207  12.5335  12.5401  12.5562  12.5594  12.5752  12.5988
    12.5992  12.6074  12.6164

     the Fermi energy is    11.6830 ev

!    total energy              =   -4526.71809821 Ry

     total all-electron energy =     -6268.268377 Ry
     estimated scf accuracy    <       0.00001885 Ry
     smearing contrib. (-TS)   =       0.00000000 Ry
     internal energy E=F+TS    =   -4526.71809821 Ry

     The total energy is F=E-TS. E is the sum of the following terms:
     one-electron contribution =     -99.11053956 Ry
     hartree contribution      =     198.74714533 Ry
     xc contribution           =    -202.41054219 Ry
     ewald contribution        =   -1006.38839996 Ry
     one-center paw contrib.   =   -3417.55576182 Ry

     convergence has been achieved in  25 iterations

     Writing all to output data dir ./out/CeO2.save/

     General routines

     Parallel routines

   This run was terminated on:  19:36:11  22Sep2022

   JOB DONE.